# Objective value = 1.3357091931510849e+00
B0(5) 0
B1(5) 0
B2(5) 0
B3(5) 0
B4(5) 0
B5(5) 0
B6(5) 1
B7(5) 0
B8(5) 0
B9(5) 0
B10(5) 0
B11(5) 0
B12(5) 1
B13(5) 0
B14(5) 0
B15(5) 0
B16(5) 0
B17(5) 0
B18(5) 0
B19(5) 0
B20(5) 1
B21(5) 0
B22(5) 0
B23(5) 0
B24(5) 1
B25(5) 0
B26(5) 0
B27(5) 0
B28(5) 0
B29(5) 0
B30(5) 0
B31(5) 0
B32(5) 0
B33(5) 0
B34(5) 1
B35(5) 0
B36(5) 0
B37(5) 0
B38(5) 0
B39(5) 1
B40(5) 0
B41(5) 0
B42(5) 0
B43(5) 0
B44(5) 1
B45(5) 0
B46(5) 0
B47(5) 0
B48(5) 0
B49(5) 1
B50(5) 0
B51(5) 0
B52(5) 0
B53(5) 0
B54(5) 0
B55(5) 0
B56(5) 0
B57(5) 0
B58(5) 0
B59(5) 0
B60(5) 1
B61(5) 0
B62(5) 0
B63(5) 0
B64(5) 0
B65(5) 0
B66(5) 0
B67(5) 0
B68(5) 0
B69(5) 1
B70(5) 0
B71(5) 0
B72(5) 1
B73(5) 0
B74(5) 0
B75(5) 0
B76(5) 0
B77(5) 0
B78(5) 1
B79(5) 0
B80(5) 0
B81(5) 0
B82(5) 0
B83(5) 0
B84(5) 0
B85(5) 0
B86(5) 0
B87(5) 1
B88(5) 0
B89(5) 0
B90(5) 0
B91(5) 0
B92(5) 0
B93(5) 0
B94(5) 1
B95(5) 0
B96(5) 0
B97(5) 0
B98(5) 0
B99(5) 0
B100(5) 0
B101(5) 0
B102(5) 0
B103(5) 0
B104(5) 1
B105(5) 0
B106(5) 0
B107(5) 0
B108(5) 0
B109(5) 0
B110(5) 1
B111(5) 0
B112(5) 0
B113(5) 0
B114(5) 0
B115(5) 0
B116(5) 0
B117(5) 0
B118(5) 1
B119(5) 0
B120(5) 0
B121(5) 0
B122(5) 0
B123(5) 0
B124(5) 0
B125(5) 1
B126(5) 0
B127(5) 1
B128(5) 0
B129(5) 0
B130(5) 0
B131(5) 0
B132(5) 0
B133(5) 0
B134(5) 0
B135(5) 0
B136(5) 0
B137(5) 0
B138(5) 0
B139(5) 1
B140(5) 0
B141(5) 0
B142(5) 1
B143(5) 0
B144(5) 0
B145(5) 0
B146(5) 0
B147(5) 0
B148(5) 0
B149(5) 0
B150(5) 0
B151(5) 0
B152(5) 0
B153(5) 1
B154(5) 0
B155(5) 0
B156(5) 0
B157(5) 0
B158(5) 0
B159(5) 1
B160(5) 0
B161(5) 0
B162(5) 0
B163(5) 0
B164(5) 0
B165(5) 0
B166(5) 1
B167(5) 0
B168(5) 0
B169(5) 0
B170(5) 0
B171(5) 1
B172(5) 0
B173(5) 0
B174(5) 0
B175(5) 0
B176(5) 0
B177(5) 1
B178(5) 0
B179(5) 0
B180(5) 0
B181(5) 0
B182(5) 0
B183(5) 1
B184(5) 0
B185(5) 0
B186(5) 0
B187(5) 0
B188(5) 0
B189(5) 0
B190(5) 0
B191(5) 0
B192(5) 0
B193(5) 0
B194(5) 0
B195(5) 1
B196(5) 0
B197(5) 0
B198(5) 0
B199(5) 0
B200(5) 0
B201(5) 0
B202(5) 1
B203(5) 0
B204(5) 0
B205(5) 1
B206(5) 0
B207(5) 0
B208(5) 0
B209(5) 0
B210(5) 0
B211(5) 0
B212(5) 0
B213(5) 0
B214(5) 0
B215(5) 0
B216(5) 1
B217(5) 0
B218(5) 0
B219(5) 0
B220(5) 0
B221(5) 1
B222(5) 0
B223(5) 0
B224(5) 0
B225(5) 1
B226(5) 0
B227(5) 0
B228(5) 0
B229(5) 0
B230(5) 0
B231(5) 0
B232(5) 0
B233(5) 0
B234(5) 0
B235(5) 0
B236(5) 1
B237(5) 0
B238(5) 0
B239(5) 0
B240(5) 0
B241(5) 0
B242(5) 0
B243(5) 0
B244(5) 1
B245(5) 0
B246(5) 0
B247(5) 0
B248(5) 0
B249(5) 0
B250(5) 0
B251(5) 1
B252(5) 0
B253(5) 0
B254(5) 0
B255(5) 0
B256(5) 0
B257(5) 0
B258(5) 1
B259(5) 0
B260(5) 0
B261(5) 1
B262(5) 0
B263(5) 0
B264(5) 0
B265(5) 0
B266(5) 1
B267(5) 0
B268(5) 0
B269(5) 0
B270(5) 0
B271(5) 0
B272(5) 0
B273(5) 0
B274(5) 0
B275(5) 0
B276(5) 0
B277(5) 0
B278(5) 1
B279(5) 0
B280(5) 0
B281(5) 0
B282(5) 1
B283(5) 0
B284(5) 0
B285(5) 0
B286(5) 0
B287(5) 0
B288(5) 0
B289(5) 1
B290(5) 0
B291(5) 0
B292(5) 0
B293(5) 0
B294(5) 0
B295(5) 0
B296(5) 0
B297(5) 0
B298(5) 1
B299(5) 0
B300(5) 0
B301(5) 1
B302(5) 0
B303(5) 0
B304(5) 0
B305(5) 0
B306(5) 0
B307(5) 0
B308(5) 0
B309(5) 0
B310(5) 0
B311(5) 0
B312(5) 0
B313(5) 0
B314(5) 1
B315(5) 1
B316(5) 0
B317(5) 0
B318(5) 0
B319(5) 0
B320(5) 0
B321(5) 0
B322(0) 0
B323(0) 0
B324(0) 0
B325(0) 0
B326(0) 0
B327(0) 0
B328(0) 0
B329(0) 0
B330(0) 0
B331(0) 0
B332(0) 0
B333(0) 0
B334(0) 0
B335(0) 0
B336(0) 0
B337(0) 0
B338(0) 0
B339(0) 0
B340(0) 0
B341(0) 0
B342(0) 0
B343(0) 0
B344(0) 0
B345(0) 0
B346(0) 0
B347(0) 0
B348(0) 0
B349(0) 0
B350(0) 0
B351(0) 0
B352(0) 0
B353(0) 0
B354(0) 0
B355(0) 0
B356(0) 0
B357(0) 0
B358(0) 0
B359(0) 0
B360(0) 0
B361(0) 0
B362(0) 0
B363(0) 0
B364(0) 0
B365(0) 0
B366(0) 0
B367(0) 0
B368(0) 0
B369(0) 0
B370(0) 0
B371(0) 0
B372(0) 0
B373(0) 0
B374(0) 0
B375(0) 0
B376(0) 0
B377(0) 0
B378(0) 0
B379(0) 0
B380(0) 0
B381(0) 0
B382(0) 0
B383(0) 0
B384(0) 0
B385(0) 0
B386(0) 0
B387(0) 0
B388(0) 0
B389(0) 0
B390(0) 0
B391(0) 0
B392(0) 0
B393(0) 0
B394(0) 0
B395(0) 0
B396(0) 0
B397(0) 0
B398(0) 0
B399(0) 0
B400(0) 0
B401(0) 0
B402(0) 0
B403(0) 0
B404(0) 0
B405(0) 0
B406(0) 0
B407(0) 0
B408(0) 0
B409(0) 0
B410(0) 0
B411(0) 0
B412(0) 0
B413(0) 0
B414(0) 0
B415(0) 0
B416(0) 0
B417(0) 0
B418(0) 0
B419(0) 0
B420(0) 0
B421(0) 0
B422(0) 0
B423(0) 0
B424(0) 0
B425(0) 0
B426(0) 0
B427(0) 0
B428(0) 0
B429(0) 0
B430(0) 0
B431(0) 0
B432(0) 0
B433(0) 0
B434(0) 0
B435(0) 0
B436(0) 0
B437(0) 0
B438(0) 0
B439(0) 0
B440(0) 0
B441(0) 0
B442(0) 0
B443(0) 0
B444(0) 0
B445(0) 0
B446(0) 0
B447(0) 0
B448(0) 0
B449(0) 0
B450(0) 0
B451(0) 0
B452(0) 0
B453(0) 0
B454(0) 0
B455(0) 0
B456(0) 0
B457(0) 0
B458(0) 0
B459(0) 0
B460(0) 0
B461(0) 0
B462(0) 0
B463(0) 0
B464(0) 0
B465(0) 0
B466(0) 0
B467(0) 0
B468(0) 0
B469(0) 0
B470(0) 0
B471(0) 0
B472(0) 0
B473(0) 0
B474(0) 0
B475(0) 0
B476(0) 0
B477(0) 0
B478(0) 0
B479(0) 0
B480(0) 0
B481(0) 0
B482(0) 0
B483(0) 0
B484(0) 0
B485(0) 0
B486(0) 0
B487(0) 0
B488(0) 0
B489(0) 0
B490(0) 0
B491(0) 0
B492(0) 0
B493(0) 0
B494(0) 0
B495(0) 0
B496(0) 0
B497(0) 0
B498(0) 0
B499(0) 0
B500(0) 0
B501(0) 0
B502(0) 0
B503(0) 0
B504(0) 0
B505(0) 0
B506(0) 0
B507(0) 0
B508(0) 0
B509(0) 0
B510(0) 0
B511(0) 0
B512(0) 0
B513(0) 0
B514(0) 0
B515(0) 0
B516(0) 0
B517(0) 0
B518(0) 0
B519(0) 0
B520(0) 0
B521(0) 0
B522(0) 0
B523(0) 0
B524(0) 0
B525(0) 0
B526(0) 0
B527(0) 0
B528(0) 0
B529(0) 0
B530(0) 0
B531(0) 0
B532(0) 0
B533(0) 0
B534(0) 0
B535(0) 0
B536(0) 0
B537(0) 0
B538(0) 0
B539(0) 0
B540(0) 0
B541(0) 0
B542(0) 0
B543(0) 0
B544(0) 0
B545(0) 0
B546(0) 0
B547(0) 0
B548(0) 0
B549(0) 0
B550(0) 0
B551(0) 0
B552(0) 0
B553(0) 0
B554(0) 0
B555(0) 0
B556(0) 0
B557(0) 0
B558(0) 0
B559(0) 0
B560(0) 0
B561(0) 0
B562(0) 0
B563(0) 0
B564(0) 0
B565(0) 0
B566(0) 0
B567(0) 0
B568(0) 0
B569(0) 0
B570(0) 0
B571(0) 0
B572(0) 0
B573(0) 0
B574(0) 0
B575(0) 0
B576(0) 0
B577(0) 0
B578(0) 0
B579(0) 0
B580(0) 0
B581(0) 0
B582(0) 0
B583(0) 0
B584(0) 0
B585(0) 0
B586(0) 0
B587(0) 0
B588(0) 0
B589(0) 0
B590(0) 0
B591(0) 0
B592(0) 0
B593(0) 0
B594(0) 0
B595(0) 0
B596(0) 0
B597(0) 0
B598(0) 0
B599(0) 0
B600(0) 0
B601(0) 0
B602(0) 0
B603(0) 0
B604(0) 0
B605(0) 0
B606(0) 0
B607(0) 0
B608(0) 0
B609(0) 0
B610(0) 0
B611(0) 0
B612(0) 0
B613(0) 0
B614(0) 0
B615(0) 0
B616(0) 0
B617(0) 0
B618(0) 0
B619(0) 0
B620(0) 0
B621(0) 0
B622(0) 0
B623(0) 0
B624(0) 0
B625(0) 0
B626(0) 0
B627(0) 0
B628(0) 0
B629(0) 0
B630(0) 0
B631(0) 0
B632(0) 0
B633(0) 0
B634(0) 0
B635(0) 0
B636(0) 0
B637(0) 0
B638(0) 0
B639(0) 0
B640(0) 0
B641(0) 0
B642(0) 0
B643(0) 0
C644(140) 629679
C645(140) 537662
C646(140) 595591
C647(140) 583282
C648(140) 631354
C649(140) 517860
C650(140) 519040
C651(141) 89262
C652(142) 92355
C653(142) 108679
C654(142) 109767
C655(142) 131180
C656(142) 217520
C657(141) 222581
C658(1) 3.1594825236024762e-02
C659(1) 4.9337832557565610e-02
C660(1) 5.7425429228450869e-02
C661(1) 6.1770393984360128e-02
C662(1) 7.9465131227689917e-02
C663(1) 5.1619954347492814e-01
C664(1) 5.3991603744206551e-01
C665(8) 0
C666(7) 1.3296105620531379e-01
C667(7) 0
C668(7) 0
C669(7) 0
C670(7) 0
C671(7) 0
C672(7) 0
C673(7) 0
C674(7) 0
C675(7) 0
C676(7) 0
C677(7) 0
C678(7) 0
C679(8) 6.0738366657609837e-02
C680(7) 8.0630057713707637e-01
C681(7) 0
C682(7) 0
C683(7) 0
C684(7) 0
C685(7) 0
C686(7) 0
C687(7) 0
C688(7) 0
C689(7) 0
C690(7) 0
C691(7) 0
C692(7) 0
B693(2) 1
B694(2) 1
B695(2) 1
B696(2) 1
C697(9) 1.4909974768337532e-07
C698(8) 6.1356242371616688e-08
C699(8) 5.0407954545330447e-01
C700(8) 2.6884500293879116e-01
C701(8) 1.0404835742345981e-07
C702(8) 0
C703(8) 0
C704(8) 0
C705(8) 0
C706(8) 0
C707(8) 0
C708(8) 0
C709(8) 0
C710(8) 0
C711(8) 0
C712(8) 0
C713(8) 0
C714(8) 0
C715(9) 0
C716(8) 0
C717(8) 2.2707513710355726e-01
C718(8) 0
C719(8) 0
C720(8) 0
C721(8) 0
C722(8) 0
C723(8) 0
C724(8) 0
C725(8) 0
C726(8) 0
C727(8) 0
C728(8) 0
C729(8) 0
C730(8) 0
C731(8) 0
C732(8) 0
B733(2) 1
B734(2) 1
B735(2) 1
B736(2) 0
B737(2) 0
C738(9) 0
C739(8) 0
C740(8) 0
C741(8) 3.8868069131697047e-01
C742(8) 0
C743(8) 0
C744(8) 0
C745(8) 0
C746(8) 0
C747(8) 0
C748(8) 0
C749(8) 0
C750(8) 0
C751(8) 0
C752(8) 0
C753(8) 0
C754(8) 0
C755(8) 0
C756(8) 0
C757(8) 0
C758(8) 0
C759(8) 0
C760(8) 0
C761(8) 0
C762(9) 0
C763(8) 0
C764(8) 0.365316624319793
C765(8) 2.4600268436323675e-01
C766(8) 0
C767(8) 0
C768(8) 0
C769(8) 0
C770(8) 0
C771(8) 0
C772(8) 0
C773(8) 0
C774(8) 0
C775(8) 0
C776(8) 0
C777(8) 0
C778(8) 0
C779(8) 0
C780(8) 0
C781(8) 0
C782(8) 0
C783(8) 0
C784(8) 0
C785(8) 0
B786(2) 1
B787(2) 1
B788(2) 1
B789(2) 0
B790(2) 0
C791(10) 0
C792(9) 0
C793(9) 0
C794(9) 4.7051141409392461e-01
C795(9) 0
C796(9) 0
C797(9) 0
C798(9) 0
C799(9) 0
C800(9) 0
C801(9) 0
C802(9) 0
C803(9) 0
C804(9) 0
C805(9) 0
C806(9) 0
C807(9) 0
C808(9) 0
C809(9) 0
C810(9) 0
C811(9) 0
C812(9) 0
C813(9) 0
C814(9) 0
C815(9) 0
C816(9) 0
C817(9) 0
C818(9) 0
C819(9) 0
C820(9) 0
C821(9) 0
C822(9) 0
C823(9) 0
C824(10) 0
C825(9) 0
C826(9) 1.5256068515595766e-01
C827(9) 3.7692790075011767e-01
C828(9) 0
C829(9) 0
C830(9) 0
C831(9) 0
C832(9) 0
C833(9) 0
C834(9) 0
C835(9) 0
C836(9) 0
C837(9) 0
C838(9) 0
C839(9) 0
C840(9) 0
C841(9) 0
C842(9) 0
C843(9) 0
C844(9) 0
C845(9) 0
C846(9) 0
C847(9) 0
C848(9) 0
C849(9) 0
C850(9) 0
C851(9) 0
C852(9) 0
C853(9) 0
C854(9) 0
C855(9) 0
C856(9) 0
B857(2) 1
B858(2) 1
B859(2) 1
B860(2) 1
B861(2) 0
B862(2) 0
C863(10) 0
C864(9) 0
C865(9) 0
C866(9) 0
C867(9) 1.4883517337946936e-01
C868(9) 0
C869(9) 0
C870(9) 0
C871(9) 0
C872(9) 0
C873(9) 0
C874(9) 0
C875(9) 0
C876(9) 5.1045129453865562e-07
C877(9) 0
C878(9) 0
C879(9) 0
C880(9) 0
C881(9) 0
C882(9) 0
C883(9) 0
C884(9) 0
C885(9) 0
C886(9) 0
C887(9) 0
C888(9) 0
C889(9) 0
C890(9) 0
C891(9) 0
C892(9) 4.9672431364847767e-16
C893(9) 0
C894(9) 0
C895(9) 0
C896(9) 0
C897(9) 0
C898(9) 0
C899(9) 0
C900(9) 0
C901(9) 0
C902(9) 0
C903(9) 0
C904(9) 0
C905(9) 0
C906(9) 0
C907(9) 0
C908(9) 0
C909(9) 0
C910(10) 0
C911(9) 0
C912(9) 0
C913(9) 7.4164197099504860e-03
C914(9) 8.4374789645928561e-01
C915(9) 0
C916(9) 0
C917(9) 0
C918(9) 0
C919(9) 0
C920(9) 0
C921(9) 0
C922(9) 0
C923(9) 0
C924(9) 0
C925(9) 0
C926(9) 0
C927(9) 0
C928(9) 0
C929(9) 0
C930(9) 0
C931(9) 0
C932(9) 0
C933(9) 0
C934(9) 0
C935(9) 0
C936(9) 0
C937(9) 0
C938(9) 0
C939(9) 0
C940(9) 0
C941(9) 0
C942(9) 0
C943(9) 0
C944(9) 0
C945(9) 0
C946(9) 0
C947(9) 0
C948(9) 0
C949(9) 0
C950(9) 0
C951(9) 0
C952(9) 0
C953(9) 0
C954(9) 0
C955(9) 0
C956(9) 0
B957(2) 1
B958(2) 1
B959(2) 1
B960(2) 1
B961(2) 0
B962(2) 1
C963(11) 0
C964(10) 0
C965(10) 0
C966(10) 0
C967(10) 0
C968(10) 0
C969(10) 0
C970(10) 0
C971(10) 0
C972(10) 0
C973(10) 0
C974(10) 0
C975(10) 0
C976(10) 0
C977(10) 0
C978(10) 0
C979(10) 0
C980(10) 0
C981(10) 0
C982(10) 0
C983(10) 0
C984(10) 0
C985(10) 0
C986(10) 0
C987(10) 0
C988(10) 0
C989(10) 0
C990(10) 0
C991(10) 0
C992(10) 0
C993(10) 0
C994(10) 0
C995(10) 0
C996(10) 0
C997(10) 0
C998(10) 0
C999(10) 0
C1000(10) 0
C1001(10) 0
C1002(10) 0
C1003(10) 0
C1004(10) 0
C1005(10) 0
C1006(10) 0
C1007(10) 0
C1008(10) 0
C1009(10) 0
C1010(10) 8.2648431083023044e-01
C1011(10) 0
C1012(10) 0
C1013(10) 0
C1014(10) 0
C1015(10) 0
C1016(10) 0
C1017(10) 0
C1018(10) 0
C1019(10) 0
C1020(10) 0
C1021(10) 0
C1022(10) 0
C1023(10) 0
C1024(10) 0
C1025(10) 0
C1026(10) 0
C1027(10) 0
C1028(10) 0
C1029(10) 0
C1030(11) 0
C1031(10) 0
C1032(10) 0
C1033(10) 0
C1034(10) 0
C1035(10) 0
C1036(10) 0
C1037(10) 0
C1038(10) 0
C1039(10) 0
C1040(10) 0
C1041(10) 0
C1042(10) 0
C1043(10) 0
C1044(10) 0
C1045(10) 0
C1046(10) 0
C1047(10) 1.0766434399567260e-07
C1048(10) 0
C1049(10) 0
C1050(10) 0
C1051(10) 0
C1052(10) 0
C1053(10) 0
C1054(10) 0
C1055(10) 0
C1056(10) 0
C1057(10) 0
C1058(10) 0
C1059(10) 0
C1060(10) 0
C1061(10) 0
C1062(10) 0
C1063(10) 0
C1064(10) 0
C1065(10) 0
C1066(10) 0
C1067(10) 0
C1068(10) 0
C1069(10) 0
C1070(10) 0
C1071(10) 0
C1072(10) 0
C1073(10) 0
C1074(10) 0
C1075(10) 0
C1076(10) 1.2062960839518491e-01
C1077(10) 5.2885973110240667e-02
C1078(10) 0
C1079(10) 0
C1080(10) 0
C1081(10) 0
C1082(10) 0
C1083(10) 0
C1084(10) 0
C1085(10) 0
C1086(10) 0
C1087(10) 0
C1088(10) 0
C1089(10) 0
C1090(10) 0
C1091(10) 0
C1092(10) 0
C1093(10) 0
C1094(10) 0
C1095(10) 0
C1096(10) 0
B1097(2) 1
B1098(2) 0
B1099(2) 0
B1100(2) 0
B1101(2) 1
B1102(2) 1
B1103(2) 0
C1104(11) 0
C1105(10) 0
C1106(10) 0
C1107(10) 0
C1108(10) 0
C1109(10) 0
C1110(10) 0
C1111(10) 0
C1112(10) 0
C1113(10) 0
C1114(10) 0
C1115(10) 0
C1116(10) 0
C1117(10) 0
C1118(10) 0
C1119(10) 0
C1120(10) 0
C1121(10) 0
C1122(10) 0
C1123(10) 0
C1124(10) 0
C1125(10) 0
C1126(10) 0
C1127(10) 0
C1128(10) 0
C1129(10) 0
C1130(10) 0
C1131(10) 0
C1132(10) 0
C1133(10) 0
C1134(10) 0
C1135(10) 0
C1136(10) 0
C1137(10) 0
C1138(10) 0
C1139(10) 0
C1140(10) 0
C1141(10) 0
C1142(10) 8.8452953832211545e-01
C1143(10) 2.2951924080790543e-02
C1144(10) 0
C1145(10) 0
C1146(10) 0
C1147(10) 0
C1148(10) 0
C1149(10) 0
C1150(10) 0
C1151(10) 0
C1152(10) 0
C1153(10) 0
C1154(10) 0
C1155(10) 0
C1156(10) 0
C1157(10) 0
C1158(10) 0
C1159(10) 0
C1160(10) 0
C1161(10) 0
C1162(10) 0
C1163(10) 0
C1164(10) 0
C1165(10) 0
C1166(10) 0
C1167(10) 0
C1168(10) 0
C1169(10) 0
C1170(10) 0
C1171(10) 0
C1172(10) 0
C1173(10) 0
C1174(10) 0
C1175(10) 0
C1176(10) 0
C1177(10) 0
C1178(10) 0
C1179(11) 0
C1180(10) 0
C1181(10) 0
C1182(10) 0
C1183(10) 0
C1184(10) 0
C1185(10) 0
C1186(10) 0
C1187(10) 0
C1188(10) 0
C1189(10) 0
C1190(10) 0
C1191(10) 0
C1192(10) 0
C1193(10) 0
C1194(10) 0
C1195(10) 0
C1196(10) 0
C1197(10) 0
C1198(10) 0
C1199(10) 0
C1200(10) 0
C1201(10) 0
C1202(10) 0
C1203(10) 0
C1204(10) 0
C1205(10) 0
C1206(10) 0
C1207(10) 0
C1208(10) 0
C1209(10) 0
C1210(10) 0
C1211(10) 0
C1212(10) 0
C1213(10) 0
C1214(10) 0
C1215(10) 0
C1216(10) 0
C1217(10) 0.092518537597094
C1218(10) 0
C1219(10) 0
C1220(10) 0
C1221(10) 0
C1222(10) 0
C1223(10) 0
C1224(10) 0
C1225(10) 0
C1226(10) 0
C1227(10) 0
C1228(10) 0
C1229(10) 0
C1230(10) 0
C1231(10) 0
C1232(10) 0
C1233(10) 0
C1234(10) 0
C1235(10) 0
C1236(10) 0
C1237(10) 0
C1238(10) 0
C1239(10) 0
C1240(10) 0
C1241(10) 0
C1242(10) 0
C1243(10) 0
C1244(10) 0
C1245(10) 0
C1246(10) 0
C1247(10) 0
C1248(10) 0
C1249(10) 0
C1250(10) 0
C1251(10) 0
C1252(10) 0
C1253(10) 0
B1254(2) 1
B1255(2) 0
B1256(2) 0
B1257(2) 1
B1258(2) 0
B1259(2) 1
B1260(2) 0
